Maximize 
E 

such that 
 + 219.0 SS(8,23) + 2.0 WH(8,23) + 2.0 WH(23,8) + 195.0 WS(8,23) + 195.0 WS(23,8) + 1088 WW(8,24) + 4 HH(8,24) + 989 SS(8,24) + 91 WH(8,24) + 91 WH(24,8) + 11 WS(8,24) + 11 WS(24,8) + 1 HS(8,24) + 1 HS(24,8) + 8.0 HH(9,23) + 5.0 SS(9,23) + 4.0 WH(9,23) + 4.0 WH(23,9) + 195.0 WS(9,23) + 195.0 WS(23,9) + 119.0 HS(9,23) + 119.0 HS(23,9) + 190 WW(9,24) + 4 HH(9,24) + 6 SS(9,24) + 18 WH(9,24) + 18 WH(24,9) + 404 WS(9,24) + 404 WS(24,9) + 315 HS(9,24) + 315 HS(24,9) + 8.0 HH(10,23) + 5.0 SS(10,23) + 4.0 WH(10,23) + 4.0 WH(23,10) + 195.0 WS(10,23) + 195.0 WS(23,10) + 119.0 HS(10,23) + 119.0 HS(23,10) + 190 WW(10,24) + 4 HH(10,24) + 6 SS(10,24) + 18 WH(10,24) + 18 WH(24,10) + 404 WS(10,24) + 404 WS(24,10) + 315 HS(10,24) + 315 HS(24,10) + 1137.0 WW(11,23) + 33.0 WH(11,23) + 33.0 WH(23,11) + 20.0 WS(11,23) + 20.0 WS(23,11) + 12.0 HS(11,23) + 12.0 HS(23,11) + 8.0 HH(11,24) + 5.0 SS(11,24) + 849.0 WH(11,24) + 849.0 WH(24,11) + 252.0 WS(11,24) + 252.0 WS(24,11) + 2.0 HS(11,24) + 2.0 HS(24,11) + 219.0 SS(23,107) + 141.0 WH(23,107) + 141.0 WH(107,23) + 121.0 WS(23,107) + 121.0 WS(107,23) + 1179.0 HS(23,107) + 1179.0 HS(107,23) + 8.0 HH(23,108) + 5.0 SS(23,108) + 849.0 WH(23,108) + 849.0 WH(108,23) + 252.0 WS(23,108) + 252.0 WS(108,23) + 2.0 HS(23,108) + 2.0 HS(108,23) + 1088 WW(24,107) + 4 HH(24,107) + 989 SS(24,107) + 125 WH(24,107) + 125 WH(107,24) + 269 WS(24,107) + 269 WS(107,24) + 102 HS(24,107) + 102 HS(107,24) + 190 WW(24,108) + 4 HH(24,108) + 6 SS(24,108) + 18 WH(24,108) + 18 WH(108,24) + 404 WS(24,108) + 404 WS(108,24) + 315 HS(24,108) + 315 HS(108,24) + 13742 FK(8,23) + 8268 KF(8,23) + 1456 FF(8,23) + 3506 KK(8,23) + 12380 FK(8,24) + 16609 KF(8,24) + 1729 FF(8,24) + 10895 KK(8,24) + 7141 FK(9,23) + 3708 KF(9,23) + 985 FF(9,23) + 2579 KK(9,23) + 13927 FK(9,24) + 13927 KF(9,24) + 1170 FF(9,24) + 6968 KK(9,24) + 7141 FK(10,23) + 3708 KF(10,23) + 985 FF(10,23) + 2579 KK(10,23) + 13927 FK(10,24) + 13927 KF(10,24) + 1170 FF(10,24) + 6968 KK(10,24) + 4949 FK(11,23) + 4949 KF(11,23) + 232 FF(11,23) + 301 KK(11,23) + 3708 FK(11,24) + 7141 KF(11,24) + 985 FF(11,24) + 2579 KK(11,24) + 8268 FK(23,107) + 13742 KF(23,107) + 1456 FF(23,107) + 3506 KK(23,107) + 3708 FK(23,108) + 7141 KF(23,108) + 985 FF(23,108) + 2579 KK(23,108) + 16609 FK(24,107) + 12380 KF(24,107) + 1729 FF(24,107) + 10895 KK(24,107) + 13927 FK(24,108) + 13927 KF(24,108) + 1170 FF(24,108) + 6968 KK(24,108) + 12380 FK(7,8) + 13927 FK(8,9) + 7141 FK(9,10) + 8886 FK(10,11) + 16955 FK(11,12) + 3708 FK(22,23) + 13968 FK(23,24) + 12464 FK(24,25) + 12380 FK(106,107) + 16609 FK(107,108) + 27269 FK(108,109) - E = 0 

 + WH(8,23) + WS(8,23) + WW(8,24) + WH(8,24) + WS(8,24) + WW(107,8) + WH(8,107) + WS(8,107) + WW(108,8) + WH(8,108) + WS(8,108) <= 1

 + WH(9,23) + WS(9,23) + WW(9,24) + WH(9,24) + WS(9,24) + WW(107,9) + WH(9,107) + WS(9,107) + WW(108,9) + WH(9,108) + WS(9,108) <= 1

 + WH(10,23) + WS(10,23) + WW(10,24) + WH(10,24) + WS(10,24) + WW(107,10) + WH(10,107) + WS(10,107) + WW(108,10) + WH(10,108) + WS(10,108) <= 1

 + WW(11,23) + WH(11,23) + WS(11,23) + WH(11,24) + WS(11,24) + WH(11,107) + WS(11,107) + WH(11,108) + WS(11,108) <= 1

 + WH(23,107) + WS(23,107) + WH(23,108) + WS(23,108) + WH(23,8) + WS(23,8) + WH(23,9) + WS(23,9) + WH(23,10) + WS(23,10) + WW(11,23) + WH(23,11) + WS(23,11) <= 1

 + WW(24,107) + WH(24,107) + WS(24,107) + WW(24,108) + WH(24,108) + WS(24,108) + WW(8,24) + WH(24,8) + WS(24,8) + WW(9,24) + WH(24,9) + WS(24,9) + WW(10,24) + WH(24,10) + WS(24,10) + WH(24,11) + WS(24,11) <= 1

 + WW(107,8) + WH(107,8) + WS(107,8) + WW(107,9) + WH(107,9) + WS(107,9) + WW(107,10) + WH(107,10) + WS(107,10) + WH(107,11) + WS(107,11) + WH(107,23) + WS(107,23) + WW(24,107) + WH(107,24) + WS(107,24) <= 1

 + WW(108,8) + WH(108,8) + WS(108,8) + WW(108,9) + WH(108,9) + WS(108,9) + WW(108,10) + WH(108,10) + WS(108,10) + WH(108,11) + WS(108,11) + WH(108,23) + WS(108,23) + WW(24,108) + WH(108,24) + WS(108,24) <= 1

 + HH(8,23) + WH(23,8) + HS(8,23) + HH(8,24) + WH(24,8) + HS(8,24) + HH(107,8) + WH(107,8) + HS(8,107) + HH(108,8) + WH(108,8) + HS(8,108) <= 1

 + HH(9,23) + WH(23,9) + HS(9,23) + HH(9,24) + WH(24,9) + HS(9,24) + HH(107,9) + WH(107,9) + HS(9,107) + HH(108,9) + WH(108,9) + HS(9,108) <= 1

 + HH(10,23) + WH(23,10) + HS(10,23) + HH(10,24) + WH(24,10) + HS(10,24) + HH(107,10) + WH(107,10) + HS(10,107) + HH(108,10) + WH(108,10) + HS(10,108) <= 1

 + HH(11,23) + WH(23,11) + HS(11,23) + HH(11,24) + WH(24,11) + HS(11,24) + HH(107,11) + WH(107,11) + HS(11,107) + HH(108,11) + WH(108,11) + HS(11,108) <= 1

 + HH(23,107) + WH(107,23) + HS(23,107) + HH(23,108) + WH(108,23) + HS(23,108) + HH(8,23) + WH(8,23) + HS(23,8) + HH(9,23) + WH(9,23) + HS(23,9) + HH(10,23) + WH(10,23) + HS(23,10) + HH(11,23) + WH(11,23) + HS(23,11) <= 1

 + HH(24,107) + WH(107,24) + HS(24,107) + HH(24,108) + WH(108,24) + HS(24,108) + HH(8,24) + WH(8,24) + HS(24,8) + HH(9,24) + WH(9,24) + HS(24,9) + HH(10,24) + WH(10,24) + HS(24,10) + HH(11,24) + WH(11,24) + HS(24,11) <= 1

 + HH(107,8) + WH(8,107) + HS(107,8) + HH(107,9) + WH(9,107) + HS(107,9) + HH(107,10) + WH(10,107) + HS(107,10) + HH(107,11) + WH(11,107) + HS(107,11) + HH(23,107) + WH(23,107) + HS(107,23) + HH(24,107) + WH(24,107) + HS(107,24) <= 1

 + HH(108,8) + WH(8,108) + HS(108,8) + HH(108,9) + WH(9,108) + HS(108,9) + HH(108,10) + WH(10,108) + HS(108,10) + HH(108,11) + WH(11,108) + HS(108,11) + HH(23,108) + WH(23,108) + HS(108,23) + HH(24,108) + WH(24,108) + HS(108,24) <= 1

 + SS(8,23) + WS(23,8) + HS(23,8) + SS(8,24) + WS(24,8) + HS(24,8) + SS(107,8) + WS(107,8) + HS(107,8) + SS(108,8) + WS(108,8) + HS(108,8) <= 1

 + SS(9,23) + WS(23,9) + HS(23,9) + SS(9,24) + WS(24,9) + HS(24,9) + SS(107,9) + WS(107,9) + HS(107,9) + SS(108,9) + WS(108,9) + HS(108,9) <= 1

 + SS(10,23) + WS(23,10) + HS(23,10) + SS(10,24) + WS(24,10) + HS(24,10) + SS(107,10) + WS(107,10) + HS(107,10) + SS(108,10) + WS(108,10) + HS(108,10) <= 1

 + SS(11,23) + WS(23,11) + HS(23,11) + SS(11,24) + WS(24,11) + HS(24,11) + SS(107,11) + WS(107,11) + HS(107,11) + SS(108,11) + WS(108,11) + HS(108,11) <= 1

 + SS(23,107) + WS(107,23) + HS(107,23) + SS(23,108) + WS(108,23) + HS(108,23) + SS(8,23) + WS(8,23) + HS(8,23) + SS(9,23) + WS(9,23) + HS(9,23) + SS(10,23) + WS(10,23) + HS(10,23) + SS(11,23) + WS(11,23) + HS(11,23) <= 1

 + SS(24,107) + WS(107,24) + HS(107,24) + SS(24,108) + WS(108,24) + HS(108,24) + SS(8,24) + WS(8,24) + HS(8,24) + SS(9,24) + WS(9,24) + HS(9,24) + SS(10,24) + WS(10,24) + HS(10,24) + SS(11,24) + WS(11,24) + HS(11,24) <= 1

 + SS(107,8) + WS(8,107) + HS(8,107) + SS(107,9) + WS(9,107) + HS(9,107) + SS(107,10) + WS(10,107) + HS(10,107) + SS(107,11) + WS(11,107) + HS(11,107) + SS(23,107) + WS(23,107) + HS(23,107) + SS(24,107) + WS(24,107) + HS(24,107) <= 1

 + SS(108,8) + WS(8,108) + HS(8,108) + SS(108,9) + WS(9,108) + HS(9,108) + SS(108,10) + WS(10,108) + HS(10,108) + SS(108,11) + WS(11,108) + HS(11,108) + SS(23,108) + WS(23,108) + HS(23,108) + SS(24,108) + WS(24,108) + HS(24,108) <= 1

 + FF(8,23) + FK(8,23) + KF(8,23) + KK(8,23) + FF(8,24) + FK(8,24) + KF(8,24) + KK(8,24) + FF(107,8) + KF(107,8) + FK(107,8) + KK(107,8) + FF(108,8) + KF(108,8) + FK(108,8) + KK(108,8) <= 1

 + FF(9,23) + FK(9,23) + KF(9,23) + KK(9,23) + FF(9,24) + FK(9,24) + KF(9,24) + KK(9,24) + FF(107,9) + KF(107,9) + FK(107,9) + KK(107,9) + FF(108,9) + KF(108,9) + FK(108,9) + KK(108,9) <= 1

 + FF(10,23) + FK(10,23) + KF(10,23) + KK(10,23) + FF(10,24) + FK(10,24) + KF(10,24) + KK(10,24) + FF(107,10) + KF(107,10) + FK(107,10) + KK(107,10) + FF(108,10) + KF(108,10) + FK(108,10) + KK(108,10) <= 1

 + FF(11,23) + FK(11,23) + KF(11,23) + KK(11,23) + FF(11,24) + FK(11,24) + KF(11,24) + KK(11,24) + FF(107,11) + KF(107,11) + FK(107,11) + KK(107,11) + FF(108,11) + KF(108,11) + FK(108,11) + KK(108,11) <= 1

 + FF(23,107) + FK(23,107) + KF(23,107) + KK(23,107) + FF(23,108) + FK(23,108) + KF(23,108) + KK(23,108) + FF(8,23) + KF(8,23) + FK(8,23) + KK(8,23) + FF(9,23) + KF(9,23) + FK(9,23) + KK(9,23) + FF(10,23) + KF(10,23) + FK(10,23) + KK(10,23) + FF(11,23) + KF(11,23) + FK(11,23) + KK(11,23) <= 1

 + FF(24,107) + FK(24,107) + KF(24,107) + KK(24,107) + FF(24,108) + FK(24,108) + KF(24,108) + KK(24,108) + FF(8,24) + KF(8,24) + FK(8,24) + KK(8,24) + FF(9,24) + KF(9,24) + FK(9,24) + KK(9,24) + FF(10,24) + KF(10,24) + FK(10,24) + KK(10,24) + FF(11,24) + KF(11,24) + FK(11,24) + KK(11,24) <= 1

 + FF(107,8) + FK(107,8) + KF(107,8) + KK(107,8) + FF(107,9) + FK(107,9) + KF(107,9) + KK(107,9) + FF(107,10) + FK(107,10) + KF(107,10) + KK(107,10) + FF(107,11) + FK(107,11) + KF(107,11) + KK(107,11) + FF(23,107) + KF(23,107) + FK(23,107) + KK(23,107) + FF(24,107) + KF(24,107) + FK(24,107) + KK(24,107) <= 1

 + FF(108,8) + FK(108,8) + KF(108,8) + KK(108,8) + FF(108,9) + FK(108,9) + KF(108,9) + KK(108,9) + FF(108,10) + FK(108,10) + KF(108,10) + KK(108,10) + FF(108,11) + FK(108,11) + KF(108,11) + KK(108,11) + FF(23,108) + KF(23,108) + FK(23,108) + KK(23,108) + FF(24,108) + KF(24,108) + FK(24,108) + KK(24,108) <= 1

 + FK(8,9) + FK(8,23) + FF(8,23) + FK(8,24) + FF(8,24) + KF(107,8) + FF(107,8) + KF(108,8) + FF(108,8) <= 1
 + FK(9,10) + FK(9,23) + FF(9,23) + FK(9,24) + FF(9,24) + KF(107,9) + FF(107,9) + KF(108,9) + FF(108,9) <= 1
 + FK(10,11) + FK(10,23) + FF(10,23) + FK(10,24) + FF(10,24) + KF(107,10) + FF(107,10) + KF(108,10) + FF(108,10) <= 1
 + FK(11,12) + FK(11,23) + FF(11,23) + FK(11,24) + FF(11,24) + KF(107,11) + FF(107,11) + KF(108,11) + FF(108,11) <= 1
 + FK(23,24) + FK(23,107) + FF(23,107) + FK(23,108) + FF(23,108) + KF(8,23) + FF(8,23) + KF(9,23) + FF(9,23) + KF(10,23) + FF(10,23) + KF(11,23) + FF(11,23) <= 1
 + FK(24,25) + FK(24,107) + FF(24,107) + FK(24,108) + FF(24,108) + KF(8,24) + FF(8,24) + KF(9,24) + FF(9,24) + KF(10,24) + FF(10,24) + KF(11,24) + FF(11,24) <= 1
 + FK(107,108) + FK(107,8) + FF(107,8) + FK(107,9) + FF(107,9) + FK(107,10) + FF(107,10) + FK(107,11) + FF(107,11) + KF(23,107) + FF(23,107) + KF(24,107) + FF(24,107) <= 1
 + FK(108,109) + FK(108,8) + FF(108,8) + FK(108,9) + FF(108,9) + FK(108,10) + FF(108,10) + FK(108,11) + FF(108,11) + KF(23,108) + FF(23,108) + KF(24,108) + FF(24,108) <= 1
 + FK(7,8) + KF(8,23) + KK(8,23) + KF(8,24) + KK(8,24) + FK(107,8) + KK(107,8) + FK(108,8) + KK(108,8) <= 1
 + FK(8,9) + KF(9,23) + KK(9,23) + KF(9,24) + KK(9,24) + FK(107,9) + KK(107,9) + FK(108,9) + KK(108,9) <= 1
 + FK(9,10) + KF(10,23) + KK(10,23) + KF(10,24) + KK(10,24) + FK(107,10) + KK(107,10) + FK(108,10) + KK(108,10) <= 1
 + FK(10,11) + KF(11,23) + KK(11,23) + KF(11,24) + KK(11,24) + FK(107,11) + KK(107,11) + FK(108,11) + KK(108,11) <= 1
 + FK(22,23) + KF(23,107) + KK(23,107) + KF(23,108) + KK(23,108) + FK(8,23) + KK(8,23) + FK(9,23) + KK(9,23) + FK(10,23) + KK(10,23) + FK(11,23) + KK(11,23) <= 1
 + FK(23,24) + KF(24,107) + KK(24,107) + KF(24,108) + KK(24,108) + FK(8,24) + KK(8,24) + FK(9,24) + KK(9,24) + FK(10,24) + KK(10,24) + FK(11,24) + KK(11,24) <= 1
 + FK(106,107) + KF(107,8) + KK(107,8) + KF(107,9) + KK(107,9) + KF(107,10) + KK(107,10) + KF(107,11) + KK(107,11) + FK(23,107) + KK(23,107) + FK(24,107) + KK(24,107) <= 1
 + FK(107,108) + KF(108,8) + KK(108,8) + KF(108,9) + KK(108,9) + KF(108,10) + KK(108,10) + KF(108,11) + KK(108,11) + FK(23,108) + KK(23,108) + FK(24,108) + KK(24,108) <= 1


 + 12380 FK(7,8) + 13927 FK(8,9) + 7141 FK(9,10) + 8886 FK(10,11) + 16955 FK(11,12) + 3708 FK(22,23) + 13968 FK(23,24) + 12464 FK(24,25) + 12380 FK(106,107) + 16609 FK(107,108) + 27269 FK(108,109) <= 106865
 + 219.0 SS(8,23) + 2.0 WH(8,23) + 2.0 WH(23,8) + 195.0 WS(8,23) + 195.0 WS(23,8) + 1088 WW(8,24) + 4 HH(8,24) + 989 SS(8,24) + 91 WH(8,24) + 91 WH(24,8) + 11 WS(8,24) + 11 WS(24,8) + 1 HS(8,24) + 1 HS(24,8) + 8.0 HH(9,23) + 5.0 SS(9,23) + 4.0 WH(9,23) + 4.0 WH(23,9) + 195.0 WS(9,23) + 195.0 WS(23,9) + 119.0 HS(9,23) + 119.0 HS(23,9) + 190 WW(9,24) + 4 HH(9,24) + 6 SS(9,24) + 18 WH(9,24) + 18 WH(24,9) + 404 WS(9,24) + 404 WS(24,9) + 315 HS(9,24) + 315 HS(24,9) + 8.0 HH(10,23) + 5.0 SS(10,23) + 4.0 WH(10,23) + 4.0 WH(23,10) + 195.0 WS(10,23) + 195.0 WS(23,10) + 119.0 HS(10,23) + 119.0 HS(23,10) + 190 WW(10,24) + 4 HH(10,24) + 6 SS(10,24) + 18 WH(10,24) + 18 WH(24,10) + 404 WS(10,24) + 404 WS(24,10) + 315 HS(10,24) + 315 HS(24,10) + 1137.0 WW(11,23) + 33.0 WH(11,23) + 33.0 WH(23,11) + 20.0 WS(11,23) + 20.0 WS(23,11) + 12.0 HS(11,23) + 12.0 HS(23,11) + 8.0 HH(11,24) + 5.0 SS(11,24) + 849.0 WH(11,24) + 849.0 WH(24,11) + 252.0 WS(11,24) + 252.0 WS(24,11) + 2.0 HS(11,24) + 2.0 HS(24,11) + 219.0 SS(23,107) + 141.0 WH(23,107) + 141.0 WH(107,23) + 121.0 WS(23,107) + 121.0 WS(107,23) + 1179.0 HS(23,107) + 1179.0 HS(107,23) + 8.0 HH(23,108) + 5.0 SS(23,108) + 849.0 WH(23,108) + 849.0 WH(108,23) + 252.0 WS(23,108) + 252.0 WS(108,23) + 2.0 HS(23,108) + 2.0 HS(108,23) + 1088 WW(24,107) + 4 HH(24,107) + 989 SS(24,107) + 125 WH(24,107) + 125 WH(107,24) + 269 WS(24,107) + 269 WS(107,24) + 102 HS(24,107) + 102 HS(107,24) + 190 WW(24,108) + 4 HH(24,108) + 6 SS(24,108) + 18 WH(24,108) + 18 WH(108,24) + 404 WS(24,108) + 404 WS(108,24) + 315 HS(24,108) + 315 HS(108,24) + 13742 FK(8,23) + 8268 KF(8,23) + 1456 FF(8,23) + 3506 KK(8,23) + 12380 FK(8,24) + 16609 KF(8,24) + 1729 FF(8,24) + 10895 KK(8,24) + 7141 FK(9,23) + 3708 KF(9,23) + 985 FF(9,23) + 2579 KK(9,23) + 13927 FK(9,24) + 13927 KF(9,24) + 1170 FF(9,24) + 6968 KK(9,24) + 7141 FK(10,23) + 3708 KF(10,23) + 985 FF(10,23) + 2579 KK(10,23) + 13927 FK(10,24) + 13927 KF(10,24) + 1170 FF(10,24) + 6968 KK(10,24) + 4949 FK(11,23) + 4949 KF(11,23) + 232 FF(11,23) + 301 KK(11,23) + 3708 FK(11,24) + 7141 KF(11,24) + 985 FF(11,24) + 2579 KK(11,24) + 8268 FK(23,107) + 13742 KF(23,107) + 1456 FF(23,107) + 3506 KK(23,107) + 3708 FK(23,108) + 7141 KF(23,108) + 985 FF(23,108) + 2579 KK(23,108) + 16609 FK(24,107) + 12380 KF(24,107) + 1729 FF(24,107) + 10895 KK(24,107) + 13927 FK(24,108) + 13927 KF(24,108) + 1170 FF(24,108) + 6968 KK(24,108) <= 5274.0
WW(12,22) = 1

WW(25,106) = 1

WW(109,7) = 1


binary 
HH(8,23) 
SS(8,23) 
WH(8,23) 
WH(23,8) 
WS(8,23) 
WS(23,8) 
HS(8,23) 
HS(23,8) 
WW(8,24) 
HH(8,24) 
SS(8,24) 
WH(8,24) 
WH(24,8) 
WS(8,24) 
WS(24,8) 
HS(8,24) 
HS(24,8) 
HH(9,23) 
SS(9,23) 
WH(9,23) 
WH(23,9) 
WS(9,23) 
WS(23,9) 
HS(9,23) 
HS(23,9) 
WW(9,24) 
HH(9,24) 
SS(9,24) 
WH(9,24) 
WH(24,9) 
WS(9,24) 
WS(24,9) 
HS(9,24) 
HS(24,9) 
HH(10,23) 
SS(10,23) 
WH(10,23) 
WH(23,10) 
WS(10,23) 
WS(23,10) 
HS(10,23) 
HS(23,10) 
WW(10,24) 
HH(10,24) 
SS(10,24) 
WH(10,24) 
WH(24,10) 
WS(10,24) 
WS(24,10) 
HS(10,24) 
HS(24,10) 
WW(11,23) 
HH(11,23) 
SS(11,23) 
WH(11,23) 
WH(23,11) 
WS(11,23) 
WS(23,11) 
HS(11,23) 
HS(23,11) 
HH(11,24) 
SS(11,24) 
WH(11,24) 
WH(24,11) 
WS(11,24) 
WS(24,11) 
HS(11,24) 
HS(24,11) 
HH(23,107) 
SS(23,107) 
WH(23,107) 
WH(107,23) 
WS(23,107) 
WS(107,23) 
HS(23,107) 
HS(107,23) 
HH(23,108) 
SS(23,108) 
WH(23,108) 
WH(108,23) 
WS(23,108) 
WS(108,23) 
HS(23,108) 
HS(108,23) 
WW(24,107) 
HH(24,107) 
SS(24,107) 
WH(24,107) 
WH(107,24) 
WS(24,107) 
WS(107,24) 
HS(24,107) 
HS(107,24) 
WW(24,108) 
HH(24,108) 
SS(24,108) 
WH(24,108) 
WH(108,24) 
WS(24,108) 
WS(108,24) 
HS(24,108) 
HS(108,24) 
WW(107,8) 
HH(107,8) 
SS(107,8) 
WH(107,8) 
WH(8,107) 
WS(107,8) 
WS(8,107) 
HS(107,8) 
HS(8,107) 
WW(107,9) 
HH(107,9) 
SS(107,9) 
WH(107,9) 
WH(9,107) 
WS(107,9) 
WS(9,107) 
HS(107,9) 
HS(9,107) 
WW(107,10) 
HH(107,10) 
SS(107,10) 
WH(107,10) 
WH(10,107) 
WS(107,10) 
WS(10,107) 
HS(107,10) 
HS(10,107) 
HH(107,11) 
SS(107,11) 
WH(107,11) 
WH(11,107) 
WS(107,11) 
WS(11,107) 
HS(107,11) 
HS(11,107) 
WW(108,8) 
HH(108,8) 
SS(108,8) 
WH(108,8) 
WH(8,108) 
WS(108,8) 
WS(8,108) 
HS(108,8) 
HS(8,108) 
WW(108,9) 
HH(108,9) 
SS(108,9) 
WH(108,9) 
WH(9,108) 
WS(108,9) 
WS(9,108) 
HS(108,9) 
HS(9,108) 
WW(108,10) 
HH(108,10) 
SS(108,10) 
WH(108,10) 
WH(10,108) 
WS(108,10) 
WS(10,108) 
HS(108,10) 
HS(10,108) 
HH(108,11) 
SS(108,11) 
WH(108,11) 
WH(11,108) 
WS(108,11) 
WS(11,108) 
HS(108,11) 
HS(11,108) 
FF(8,23) 
FK(8,23) 
KF(8,23) 
KK(8,23) 
FF(8,24) 
FK(8,24) 
KF(8,24) 
KK(8,24) 
FF(9,23) 
FK(9,23) 
KF(9,23) 
KK(9,23) 
FF(9,24) 
FK(9,24) 
KF(9,24) 
KK(9,24) 
FF(10,23) 
FK(10,23) 
KF(10,23) 
KK(10,23) 
FF(10,24) 
FK(10,24) 
KF(10,24) 
KK(10,24) 
FF(11,23) 
FK(11,23) 
KF(11,23) 
KK(11,23) 
FF(11,24) 
FK(11,24) 
KF(11,24) 
KK(11,24) 
FF(23,107) 
FK(23,107) 
KF(23,107) 
KK(23,107) 
FF(23,108) 
FK(23,108) 
KF(23,108) 
KK(23,108) 
FF(24,107) 
FK(24,107) 
KF(24,107) 
KK(24,107) 
FF(24,108) 
FK(24,108) 
KF(24,108) 
KK(24,108) 
FF(107,8) 
FK(107,8) 
KF(107,8) 
KK(107,8) 
FF(107,9) 
FK(107,9) 
KF(107,9) 
KK(107,9) 
FF(107,10) 
FK(107,10) 
KF(107,10) 
KK(107,10) 
FF(107,11) 
FK(107,11) 
KF(107,11) 
KK(107,11) 
FF(108,8) 
FK(108,8) 
KF(108,8) 
KK(108,8) 
FF(108,9) 
FK(108,9) 
KF(108,9) 
KK(108,9) 
FF(108,10) 
FK(108,10) 
KF(108,10) 
KK(108,10) 
FF(108,11) 
FK(108,11) 
KF(108,11) 
KK(108,11) 
FK(7,8) 
FK(8,9) 
FK(9,10) 
FK(10,11) 
FK(11,12) 
FK(22,23) 
FK(23,24) 
FK(24,25) 
FK(106,107) 
FK(107,108) 
FK(108,109) 

general
E
end 
